9429.0
0 0 0 1 1 1 1 1 1 1 
7 7 7 7 7 7 7 7 3 4 4 4 4 4 4 4 4 5 3 8 8 3 3 8 8 5 9 9 9 9 9 9 9 8 6 6 6 6 6 6 6 6 6 6 7 7 4 8 8 5 5 3 4 6 7 5 3 3 3 4 6 9 5 5 3 3 9 7 4 7 9 6 4 3 3 5 3 4 7 6 6 3 8 5 5 3 3 7 5 4 5 5 9 6 5 6 3 4 3 7 